peakDumbCharging = 7400; 
Machine = anon_enum(16); 
machineSpeed = [3700,3700,3700,3700,3700,3700,3700,3700,3700,3700,3700,3700,3700,3700,3700,3700]; 
machineLoad = [3700,3700,3700,3700,3700,3700,3700,3700,3700,3700,3700,3700,3700,3700,3700,3700]; 
Car = anon_enum(8); 
demandCar = [16000,6400,4560,4920,14960,8200,9360,16121]; 
arrivalCar = [67,65,64,61,55,48,44,39]; 
departureCar = [73,68,67,64,61,51,48,48]; 
